StudentsNr = 10;
InstructorsNr = 40;
DaysNr = 2;
SlotsPerDay = 60;
AvailabilitySlotsLenght = 60;
RoomNr = 2;
ProgrammNr = 2;
DegreeNr = 2;
RolesNr = 4;
CoursesNr = 1;
InstructorsProgramm = [{1}, {1}, {1, 2}, {1}, {1}, {1}, {2}, {1}, {1}, {1}, {2}, {1}, {2}, {1}, {1}, {1, 2}, {1, 2}, {2}, {1, 2}, {2}, {2}, {1}, {2}, {2}, {1, 2}, {1, 2}, {1, 2}, {2}, {1}, {1}, {2}, {2}, {2}, {2}, {2}, {2}, {2}, {1}, {2}, {1, 2}];
InstructorRolesPerProgramm = [|{1, 3, 4, 5, 6, 8, 14, 15, 17, 22, 25, 27, 30, 40}, {3, 4, 5, 12, 16, 17, 22, 26, 27}, {1, 3, 5, 8, 16, 17, 26}, {1, 6, 8, 14, 16, 22, 25, 26, 27, 30, 38}|{3, 7, 11, 17, 18, 21, 23, 24, 25, 27, 32, 40}, {3, 11, 13, 16, 17, 23, 24, 26, 27, 32, 36, 37, 39}, {3, 11, 16, 17, 18, 20, 21, 26, 31, 33, 34, 39}, {11, 16, 20, 21, 23, 24, 25, 26, 27, 28, 31, 33, 34, 35, 37, 39}|];
InstructorsAvailability = [|1, 1, |1, 1, |1, 0, |0, 1, |1, 1, |0, 1, |1, 1, |1, 1, |1, 0, |0, 1, |0, 0, |0, 1, |1, 1, |0, 1, |1, 1, |0, 0, |1, 0, |1, 1, |1, 0, |0, 1, |1, 1, |1, 0, |1, 1, |1, 1, |0, 0, |0, 1, |0, 1, |0, 0, |1, 1, |1, 1, |0, 1, |1, 1, |1, 1, |1, 0, |1, 1, |0, 1, |1, 1, |1, 1, |1, 1, |0, 1|];
StudentsProgramm = [2, 1, 2, 1, 2, 1, 1, 1, 2, 1];
StudentsDegree = [2, 2, 2, 2, 1, 2, 1, 2, 1, 2];
StudentsSupervisorId = [34, 4, 13, 15, 37, 14, 8, 38, 37, 30];
StudentsCourseIds = [{}, {}, {}, {}, {1}, {}, {1}, {}, {1}, {}];
StudentsAvailability = [|0, 0, |1, 1, |1, 1, |1, 1, |0, 1, |1, 1, |0, 1, |0, 0, |0, 0, |1, 1|];
TheoryticalMinCard = [0, 0, 0, 0, 0, 0, 0, 0, 0, 0];
CoursesInstructorIds = [{2, 3, 6, 7, 8, 9, 10, 13, 17, 19, 20, 21, 22, 24, 25, 26, 27, 28, 29, 30, 33, 34, 35, 38, 39, 40}];
RolesDemands = [9, 2, 1, 2];
RolesContinuity = [4, 2, 1];
ExamLen = [1, 1, 1, 1, 2, 1, 2, 1, 2, 1];
LunchTsMinLen = 0;
LunchStarts = [24..43, 83..101];
SupervisorAvailable = 0;
OptimalLunchLenght = [2, 0];
OptimalStartTs = [1, 0];
OptimalFinishTs = [2, 60];
MinimizeRooms = 0;
RolesSoftContinuity = [|1, 2, 3, 4|1, 2, 3, 1|];
SameDegreeInRoom = 10;
Mergeability = 1;
